(declare-fun var0 () String)
(assert (str.in.re var0 (re.++ (re.* (re.+ (str.to.re "||"))) (re.++ (re.+ (re.+ (str.to.re "{"))) (re.++ (re.* (re.+ (str.to.re "`"))) (re.++ (re.union (re.* (str.to.re "^^")) (re.* (str.to.re "__"))) (re.++ (re.* (re.* (str.to.re "]]"))) (re.++ (re.* (re.* (str.to.re "\\\\"))) (re.++ (re.+ (re.+ (str.to.re "["))) (re.++ (re.union (re.* (str.to.re ">>")) (re.union (str.to.re "??") (str.to.re "@"))) (re.++ (re.* (re.* (str.to.re "=="))) (re.++ (re.+ (re.* (str.to.re "<<<"))) (re.++ (re.+ (re.* (str.to.re ";;;"))) (re.++ (re.+ (re.+ (str.to.re ":::"))) (re.++ (re.union (re.* (str.to.re "...")) (re.* (str.to.re "/"))) (re.++ (re.* (re.* (str.to.re "---"))) (re.++ (re.* (re.+ (str.to.re ",,,"))) (re.++ (re.union (re.+ (str.to.re "***")) (re.+ (str.to.re "++"))) (re.++ (re.+ (re.+ (str.to.re "))"))) (re.++ (re.+ (re.* (str.to.re "(("))) (re.++ (re.* (re.* (str.to.re "'"))) (re.++ (re.union (re.union (str.to.re "$$") (str.to.re "%%")) (re.* (str.to.re "&&&"))) (re.++ (re.+ (re.+ (str.to.re "##"))) (re.++ (re.+ (re.+ (str.to.re """"""""))) (re.++ (re.union (re.* (str.to.re "YYY")) (re.union (str.to.re "Z") (str.to.re "!"))) (re.++ (re.* (re.union (str.to.re "WWW") (str.to.re "X"))) (re.++ (re.+ (re.* (str.to.re "VVV"))) (re.++ (re.union (re.union (str.to.re "SS") (str.to.re "TTT")) (re.* (str.to.re "UUU"))) (re.++ (re.+ (re.* (str.to.re "RR"))) (re.++ (re.* (re.+ (str.to.re "QQQ"))) (re.++ (re.union (re.+ (str.to.re "OOO")) (re.* (str.to.re "PP"))) (re.++ (re.* (re.union (str.to.re "MMM") (str.to.re "NNN"))) (re.++ (re.union (re.union (str.to.re "III") (str.to.re "JJJ")) (re.union (str.to.re "KK") (str.to.re "LL"))) (re.++ (re.+ (re.* (str.to.re "H"))) (re.++ (re.+ (re.union (str.to.re "FF") (str.to.re "GGG"))) (re.++ (re.union (re.union (str.to.re "C") (str.to.re "DD")) (re.* (str.to.re "EEE"))) (re.++ (re.union (re.union (str.to.re "zz") (str.to.re "AA")) (re.* (str.to.re "B"))) (re.++ (re.* (re.+ (str.to.re "yyy"))) (re.++ (re.* (re.* (str.to.re "xx"))) (re.++ (re.* (re.union (str.to.re "v") (str.to.re "ww"))) (re.++ (re.+ (re.* (str.to.re "uuu"))) (re.++ (re.union (re.* (str.to.re "rrr")) (re.union (str.to.re "sss") (str.to.re "ttt"))) (re.++ (re.+ (re.union (str.to.re "pp") (str.to.re "q"))) (re.++ (re.union (re.union (str.to.re "mmm") (str.to.re "nn")) (re.+ (str.to.re "ooo"))) (re.++ (re.* (re.+ (str.to.re "lll"))) (re.++ (re.+ (re.union (str.to.re "jjj") (str.to.re "kk"))) (re.++ (re.union (re.* (str.to.re "hhh")) (re.+ (str.to.re "iii"))) (re.++ (re.+ (re.+ (str.to.re "g"))) (re.++ (re.* (re.* (str.to.re "ff"))) (re.++ (re.union (re.+ (str.to.re "ccc")) (re.union (str.to.re "ddd") (str.to.re "ee"))) (re.++ (re.union (re.+ (str.to.re "9")) (re.union (str.to.re "a") (str.to.re "b"))) (re.++ (re.* (re.+ (str.to.re "888"))) (re.++ (re.* (re.union (str.to.re "666") (str.to.re "7"))) (re.++ (re.union (re.union (str.to.re "333") (str.to.re "4")) (re.* (str.to.re "55"))) (re.union (re.* (str.to.re "00")) (re.union (str.to.re "11") (str.to.re "22")))))))))))))))))))))))))))))))))))))))))))))))))))))))))
(check-sat)